
Gurobi 6.5.2 (linux64) logging started Wed Aug 31 10:35:27 2016

Optimize a model with 101 rows, 663 columns and 1327 nonzeros
Coefficient statistics:
  Matrix range    [1e+00, 2e+00]
  Objective range [2e+00, 1e+02]
  Bounds range    [1e+00, 1e+00]
  RHS range       [1e+00, 1e+00]
Found heuristic solution: objective 2555
Presolve removed 51 rows and 50 columns
Presolve time: 0.00s
Presolved: 50 rows, 613 columns, 1226 nonzeros
Variable types: 0 continuous, 613 integer (613 binary)

Root relaxation: objective 7.455000e+02, 71 iterations, 0.00 seconds

    Nodes    |    Current Node    |     Objective Bounds      |     Work
 Expl Unexpl |  Obj  Depth IntInf | Incumbent    BestBd   Gap | It/Node Time

     0     0  745.50000    0   10 2555.00000  745.50000  70.8%     -    0s
H    0     0                     805.0000000  745.50000  7.39%     -    0s
H    0     0                     756.0000000  745.50000  1.39%     -    0s
     0     0  747.00000    0    8  756.00000  747.00000  1.19%     -    0s
     0     0  747.00000    0    7  756.00000  747.00000  1.19%     -    0s
     0     0  753.50000    0   13  756.00000  753.50000  0.33%     -    0s
H    0     0                     755.0000000  753.50000  0.20%     -    0s

Cutting planes:
  Gomory: 3
  Zero half: 3

Explored 0 nodes (147 simplex iterations) in 0.01 seconds
Thread count was 8 (of 8 available processors)

Optimal solution found (tolerance 1.00e-04)
Best objective 7.550000000000e+02, best bound 7.550000000000e+02, gap 0.0%
